
Gurobi 10.0.0 (win64) logging started Wed Jun 12 15:16:33 2024

Set parameter LogFile to value "C:\Users\ealvarezq\Documents\GitHub\Comillas\Models\JointResearch\05. Models\06.Benchmarking\B.Operation_cost\RTS24_mod2_ByStages_nc30/openStarNet_RTS24_mod2_ByStages_nc30.log"
Set parameter Method to value 2
Set parameter MIPFocus to value 1
Set parameter Presolve to value 2
Set parameter RINS to value 100
Set parameter MIPGap to value 0.01
Set parameter Threads to value 9
Set parameter TimeLimit to value 259200
Set parameter IterationLimit to value 760000000
Gurobi Optimizer version 10.0.0 build v10.0.0rc2 (win64)

CPU model: Intel(R) Core(TM) i7-8700 CPU @ 3.20GHz, instruction set [SSE2|AVX|AVX2]
Thread count: 6 physical cores, 12 logical processors, using up to 9 threads

Optimize a model with 10653 rows, 7202 columns and 29008 nonzeros
Model fingerprint: 0x5a24b4e6
Variable types: 7181 continuous, 21 integer (21 binary)
Coefficient statistics:
  Matrix range     [1e-02, 1e+03]
  Objective range  [1e+00, 1e+00]
  Bounds range     [4e-05, 3e+00]
  RHS range        [4e-05, 3e+00]
Presolve removed 6339 rows and 3630 columns
Presolve time: 0.04s
Presolved: 4314 rows, 3572 columns, 15573 nonzeros
Variable types: 3551 continuous, 21 integer (21 binary)
Found heuristic solution: objective 86.3618664
Root relaxation presolve removed 6 rows and 6 columns
Root relaxation presolved: 4308 rows, 3566 columns, 15561 nonzeros

Root barrier log...

Ordering time: 0.00s

Barrier statistics:
 Dense cols : 21
 AA' NZ     : 2.890e+04
 Factor NZ  : 8.293e+04 (roughly 4 MB of memory)
 Factor Ops : 1.699e+06 (less than 1 second per iteration)
 Threads    : 9

                  Objective                Residual
Iter       Primal          Dual         Primal    Dual     Compl     Time
   0   2.76702497e+06 -7.63753646e+07  2.24e+01 5.55e+02  6.62e+04     0s
   1   9.00822310e+05 -4.31444754e+07  7.22e+00 7.01e+01  1.97e+04     0s
   2   7.32667665e+04 -2.58654870e+07  5.75e-01 1.39e+01  3.56e+03     0s
   3   1.68947857e+04 -3.90674730e+06  5.60e-02 2.96e-10  4.24e+02     0s
   4   1.06098363e+04 -1.71707440e+05  2.36e-03 4.99e-11  1.82e+01     0s
   5   4.01698118e+03 -3.64115691e+04  2.24e-13 5.09e-11  4.01e+00     0s
   6   1.14524294e+03 -7.29969170e+03  1.64e-13 1.09e-11  8.38e-01     0s
   7   4.55088093e+02 -2.42206210e+03  1.71e-13 4.55e-12  2.85e-01     0s
   8   1.76241101e+02 -7.14841676e+02  1.68e-13 1.88e-12  8.84e-02     0s
   9   1.07352188e+02 -7.65034427e+01  2.03e-13 1.65e-12  1.82e-02     0s
  10   7.72386055e+01  8.32832712e-01  1.82e-13 3.82e-12  7.58e-03     0s
  11   6.71826900e+01  3.47495545e+01  6.71e-13 1.39e-12  3.22e-03     0s
  12   6.39545827e+01  4.41813563e+01  1.37e-12 1.45e-12  1.96e-03     0s
  13   5.99797369e+01  4.69892343e+01  8.07e-12 2.05e-12  1.29e-03     0s
  14   5.87581256e+01  5.33283028e+01  5.48e-12 1.38e-12  5.39e-04     0s
  15   5.77238153e+01  5.40822099e+01  2.32e-11 2.01e-12  3.61e-04     0s
  16   5.68708400e+01  5.48012128e+01  1.47e-11 5.15e-12  2.05e-04     0s
  17   5.65275036e+01  5.56280860e+01  3.33e-11 2.68e-12  8.92e-05     0s
  18   5.64310266e+01  5.57529383e+01  2.81e-11 3.96e-12  6.73e-05     0s
  19   5.63179652e+01  5.59946081e+01  3.10e-11 2.89e-12  3.21e-05     0s
  20   5.62217692e+01  5.61222004e+01  4.51e-10 2.64e-12  9.88e-06     0s
  21   5.62039387e+01  5.61681517e+01  2.91e-10 1.30e-12  3.55e-06     0s
  22   5.61891889e+01  5.61795903e+01  1.01e-09 2.61e-12  9.52e-07     0s
  23   5.61850447e+01  5.61829730e+01  2.13e-10 2.05e-12  2.06e-07     0s
  24   5.61842451e+01  5.61841142e+01  7.02e-11 2.64e-12  1.30e-08     0s
  25   5.61842373e+01  5.61842370e+01  2.83e-10 4.83e-12  3.52e-11     0s

Barrier solved model in 25 iterations and 0.17 seconds (0.15 work units)
Optimal objective 5.61842373e+01


Root relaxation: objective 5.618424e+01, 655 iterations, 0.11 seconds (0.07 work units)

    Nodes    |    Current Node    |     Objective Bounds      |     Work
 Expl Unexpl |  Obj  Depth IntInf | Incumbent    BestBd   Gap | It/Node Time

     0     0   56.18424    0   15   86.36187   56.18424  34.9%     -    0s
     0     0   56.81130    0   10   86.36187   56.81130  34.2%     -    0s
H    0     0                      84.6784499   56.81130  32.9%     -    0s
H    0     0                      80.5479386   56.81130  29.5%     -    0s
H    0     0                      79.1692874   57.33719  27.6%     -    0s
     0     0   57.33719    0   11   79.16929   57.33719  27.6%     -    0s
     0     0   57.43689    0    9   79.16929   57.43689  27.5%     -    0s
     0     0   57.44759    0   10   79.16929   57.44759  27.4%     -    0s
     0     0   57.44835    0   10   79.16929   57.44835  27.4%     -    0s
     0     0   57.45039    0   10   79.16929   57.45039  27.4%     -    0s
     0     0   57.45126    0   10   79.16929   57.45126  27.4%     -    0s
     0     0   57.45126    0   10   79.16929   57.45126  27.4%     -    0s
     0     0   57.54497    0   14   79.16929   57.54497  27.3%     -    0s
H    0     0                      73.9889119   57.54497  22.2%     -    0s
     0     0   57.56303    0   14   73.98891   57.56303  22.2%     -    0s
     0     0   58.21178    0   14   73.98891   58.21178  21.3%     -    0s
     0     0   58.21178    0   14   73.98891   58.21178  21.3%     -    0s
     0     0   58.21710    0   13   73.98891   58.21710  21.3%     -    1s
H    0     0                      70.4510021   58.21710  17.4%     -    3s
     0     2   58.21710    0   13   70.45100   58.21710  17.4%     -    3s
   199   135   64.46982    6   12   70.45100   59.84416  15.1%   142    6s
   697   225     cutoff    9        70.45100   65.44265  7.11%   115   11s
  1785    69     cutoff   17        70.45100   68.42207  2.88%  81.9   16s

Cutting planes:
  Gomory: 1
  Implied bound: 42
  MIR: 136
  Relax-and-lift: 17

Explored 2059 nodes (156929 simplex iterations) in 17.49 seconds (20.87 work units)
Thread count was 9 (of 12 available processors)

Solution count 6: 70.451 73.9889 79.1693 ... 86.3619

Optimal solution found (tolerance 1.00e-02)
Best objective 7.045100213032e+01, best bound 7.045100213032e+01, gap 0.0000%

Gurobi 10.0.0 (win64) logging started Wed Jun 12 15:16:51 2024

Set parameter LogFile to value "C:\Users\ealvarezq\Documents\GitHub\Comillas\Models\JointResearch\05. Models\06.Benchmarking\B.Operation_cost\RTS24_mod2_ByStages_nc30/openStarNet_RTS24_mod2_ByStages_nc30.log"
Set parameter Method to value 2
Set parameter MIPFocus to value 1
Set parameter Presolve to value 2
Set parameter RINS to value 100
Set parameter MIPGap to value 0.01
Set parameter Threads to value 9
Set parameter TimeLimit to value 259200
Set parameter IterationLimit to value 760000000
Gurobi Optimizer version 10.0.0 build v10.0.0rc2 (win64)

CPU model: Intel(R) Core(TM) i7-8700 CPU @ 3.20GHz, instruction set [SSE2|AVX|AVX2]
Thread count: 6 physical cores, 12 logical processors, using up to 9 threads

Optimize a model with 10653 rows, 7181 columns and 26467 nonzeros
Model fingerprint: 0xd92f50f6
Coefficient statistics:
  Matrix range     [1e-02, 1e+03]
  Objective range  [1e+00, 1e+00]
  Bounds range     [4e-05, 3e+00]
  RHS range        [4e-05, 2e+01]
Presolve removed 8957 rows and 4141 columns
Presolve time: 0.01s
Presolved: 1696 rows, 3124 columns, 7798 nonzeros

Ordering time: 0.00s

Barrier statistics:
 AA' NZ     : 4.316e+03
 Factor NZ  : 1.455e+04 (roughly 2 MB of memory)
 Factor Ops : 1.917e+05 (less than 1 second per iteration)
 Threads    : 1

                  Objective                Residual
Iter       Primal          Dual         Primal    Dual     Compl     Time
   0   1.35196552e+06 -6.38173564e+07  6.71e+00 3.13e+03  9.11e+04     0s
   1   8.59764014e+04 -3.91840181e+07  3.55e-01 8.73e-11  1.06e+04     0s
   2   4.14778988e+04 -1.05876466e+07  1.09e-01 1.16e-10  2.42e+03     0s
   3   2.41864287e+04 -1.35826212e+06  3.29e-03 1.16e-10  2.61e+02     0s
   4   1.48102078e+04 -7.68047313e+04  6.99e-13 8.00e-11  1.71e+01     0s
   5   3.66246077e+03 -1.79821898e+04  4.66e-13 1.29e-11  4.04e+00     0s
   6   1.09265216e+03 -4.53204322e+03  5.26e-13 1.17e-11  1.05e+00     0s
   7   2.88906168e+02 -9.00794996e+02  3.90e-13 4.34e-12  2.22e-01     0s
   8   1.50682022e+02 -3.10422893e+02  1.49e-13 7.97e-12  8.61e-02     0s
   9   9.92239723e+01 -4.83256242e+01  1.92e-13 9.09e-12  2.75e-02     0s
  10   8.54512684e+01 -5.46093529e+00  2.25e-13 1.11e-11  1.70e-02     0s
  11   7.46143323e+01  4.57227451e+01  2.42e-13 8.80e-12  5.39e-03     0s
  12   7.28317982e+01  6.09290845e+01  8.15e-13 1.46e-11  2.22e-03     0s
  13   7.13508781e+01  6.91687555e+01  7.17e-13 8.49e-12  4.07e-04     0s
  14   7.04986428e+01  7.02820615e+01  2.70e-12 8.22e-12  4.04e-05     0s
  15   7.04547290e+01  7.04152203e+01  2.09e-12 7.87e-12  7.38e-06     0s
  16   7.04514214e+01  7.04501616e+01  1.35e-12 7.54e-12  2.35e-07     0s
  17   7.04510032e+01  7.04510003e+01  4.83e-13 6.07e-12  5.26e-10     0s
  18   7.04510021e+01  7.04510021e+01  7.56e-13 1.51e-11  4.68e-15     0s

Barrier solved model in 18 iterations and 0.04 seconds (0.03 work units)
Optimal objective 7.04510021e+01

Crossover log...

     336 DPushes remaining with DInf 0.0000000e+00                 0s

     120 PPushes remaining with PInf 0.0000000e+00                 0s
       0 PPushes remaining with PInf 0.0000000e+00                 0s

  Push phase complete: Pinf 0.0000000e+00, Dinf 4.3139364e-13      0s

Iteration    Objective       Primal Inf.    Dual Inf.      Time
     123    7.0451002e+01   0.000000e+00   0.000000e+00      0s

Use crossover to convert LP symmetric solution to basic solution...
Crossover log...

       0 DPushes remaining with DInf 0.0000000e+00                 0s

      58 PPushes remaining with PInf 0.0000000e+00                 0s
       0 PPushes remaining with PInf 0.0000000e+00                 0s

  Push phase complete: Pinf 0.0000000e+00, Dinf 5.2642873e-13      0s

Iteration    Objective       Primal Inf.    Dual Inf.      Time
     190    7.0451002e+01   0.000000e+00   0.000000e+00      0s

Solved in 190 iterations and 0.06 seconds (0.04 work units)
Optimal objective  7.045100213e+01
